
  32    1
  10

   0   0   4 2 3 4 10 
   3   1   4 14 7 6 5 
   6   2   3 12 9 7 
   5   1   2 14 6 
   1   2   3 13 12 8 
   7   3   2 13 8 
   2   2   2 13 8 
   1   1   3 19 15 11 
   4   2   3 19 18 14 
   1   1   2 15 11 
   1   4   4 21 20 18 16 
   7   1   2 18 15 
   9   2   4 21 20 18 17 
   2   1   3 21 20 16 
   1   4   2 21 16 
   7   3   1 17 
   9   1   3 24 23 22 
   7   4   3 24 23 22 
   1   1   3 24 23 22 
   4   2   4 30 29 24 23 
   8   3   6 31 30 29 28 25 24 
   6   5   5 30 29 28 27 26 
   3   1   4 31 28 27 25 
   9   1   2 27 26 
   6   1   1 26 
   9   2   1 32
   7   2   1 32
   7   1   1 32
   4   1   1 32
   9   2   1 32
   7   3   1 32
   0   0   0 
